0 0 0 0
0 1 0 0
0 2 2 0
0 3 0 0
0 4 1 4
0 5 0 4
0 6 0 6
0 7 0 8
0 8 2 1
0 9 0 9
0 10 0 9
0 11 0 6
0 12 0 10
0 13 0 7
0 14 0 12
0 15 1 11
0 16 0 8
0 17 2 15
0 18 1 12
0 19 1 15
0 20 0 12
0 21 0 16
0 22 2 13
0 23 0 20
0 24 0 10
0 25 0 19
0 26 0 23
0 27 2 16
0 28 0 28
0 29 1 25
0 30 2 20
0 31 0 30
